letting initialStacks = [49, 12, 32, 44, 31, 13, 40, 7, 38, 41, 24, 48, 11, 43, 34, 5, 28, 46, 17, 50, 39, 18, 19, 16, 25, 45, 47, 30, 9, 27, 36, 29, 35, 1, 22, 51, 21, 3, 23, 14, 42, 20, 6, 37, 33, 15, 8, 4, 2, 10, 26]
